Gurobi Optimizer version 9.1.0 build v9.1.0rc0 (linux64)
Thread count: 8 physical cores, 16 logical processors, using up to 16 threads
Optimize a model with 1796 rows, 1560 columns and 8140 nonzeros
Model fingerprint: 0x7ebb763b
Variable types: 0 continuous, 1560 integer (1560 binary)
Coefficient statistics:
  Matrix range     [1e+00, 1e+00]
  Objective range  [1e+01, 1e+04]
  Bounds range     [1e+00, 1e+00]
  RHS range        [1e+00, 5e+01]
Presolve removed 20 rows and 10 columns
Presolve time: 0.03s
Presolved: 1776 rows, 1550 columns, 8090 nonzeros
Variable types: 0 continuous, 1550 integer (1550 binary)
Found heuristic solution: objective 38161.000000

Concurrent LP optimizer: primal simplex, dual simplex, and barrier
Showing barrier log only...

Root barrier log...

Ordering time: 0.02s

Barrier performed 0 iterations in 0.07 seconds
Barrier solve interrupted - model solved by another algorithm


Solved with dual simplex

Root relaxation: objective 3.429150e+04, 618 iterations, 0.03 seconds

    Nodes    |    Current Node    |     Objective Bounds      |     Work
 Expl Unexpl |  Obj  Depth IntInf | Incumbent    BestBd   Gap | It/Node Time

     0     0 34291.5000    0  110 38161.0000 34291.5000  10.1%     -    0s
H    0     0                    34687.000000 34291.5000  1.14%     -    0s
H    0     0                    34361.000000 34291.5000  0.20%     -    0s
H    0     0                    34360.000000 34291.5000  0.20%     -    0s
H    0     0                    34344.000000 34292.5000  0.15%     -    0s
     0     0 34305.0000    0  112 34344.0000 34305.0000  0.11%     -    0s
     0     0 34305.0000    0  102 34344.0000 34305.0000  0.11%     -    0s
H    0     0                    34325.000000 34305.0000  0.06%     -    0s
     0     0 34325.0000    0  151 34325.0000 34325.0000  0.00%     -    0s

Cutting planes:
  Clique: 1
  Zero half: 8

Explored 1 nodes (996 simplex iterations) in 0.23 seconds
Thread count was 16 (of 16 available processors)

Solution count 7: 34325 34344 34344 ... 38161

Optimal solution found (tolerance 1.00e-04)
Best objective 3.432500000000e+04, best bound 3.432500000000e+04, gap 0.0000%

User-callback calls 170, time in user-callback 0.00 sec
['/opt/local/stow/gurobi910/linux64/lib/libgurobi91.so']
Optimal Result: runtime=0.23sec; objective=34325; gap=0.0000%
Solution written to /autofs/unityaccount/cremi/mdeboute/Bureau/multi-period-flp/solution//instMulti_I10_J50_T3_0_result.txt
